12
0 22 5 68 32 72 26 1 61 12 37 94 
61 0 94 56 38 66 65 60 15 23 18 16 
89 45 0 35 51 4 37 79 93 1 60 40 
59 74 33 0 33 7 21 30 30 66 45 34 
84 24 49 49 0 17 99 54 68 51 32 84 
74 31 22 66 43 0 86 80 69 65 47 69 
84 8 28 14 25 30 0 62 32 23 27 89 
67 61 93 77 14 66 63 0 25 64 93 35 
74 78 34 10 79 93 81 43 0 86 63 39 
2 20 9 84 82 100 12 48 40 0 33 97 
32 39 45 25 10 21 20 24 59 11 0 62 
44 97 24 24 10 61 50 17 21 51 34 0 
